20
43	408	443	56	22
45	96	497	35	14
24	184	306	36	91
6	511	498	22	39
36	91	382	45	85
5	262	554	54	66
35	250	542	23	37
21	522	576	15	95
49	197	666	61	26
12	92	554	67	93
50	309	494	50	23
44	120	456	95	49
29	469	401	34	48
15	200	643	63	24
22	35	638	61	12
29	469	348	61	98
34	296	670	25	75
24	331	332	56	19
15	63	667	27	91
45	262	342	42	59
